1 20
2 16
3 17
4 16
5 3
6 21
7 20
8 24
9 21
10 14
11 21
12 21
13 15
14 13
15 3
16 7
17 19
18 11
19 22
20 7
21 3
22 10
23 22
24 13
25 9
26 21
27 15
28 21
29 1
30 1
31 1
32 1
33 1
34 1
35 10
36 1
37 1
38 8
39 4
40 5
41 4
42 24
43 5
44 3
45 24
46 16
47 3
48 2
49 2
50 5
51 18
52 9
53 12
54 4
55 6
56 11
57 6
58 12
59 13
60 12
61 19
62 24
63 14
64 5
65 16
66 8
67 11
68 11
69 16
70 15
71 14
72 14
73 17
74 20
75 21
76 19
77 3
78 24
79 10
80 10
81 10
82 12
83 12
84 12
85 14
86 14
87 15
88 19
89 9
90 19
91 17
92 2
93 11
94 22
95 8
96 20
97 1
98 4
99 12
100 1
101 7
102 10
103 23
104 9
105 22
106 2
107 3
108 4
109 5
110 4
111 4
112 11
113 22
114 23
115 23
116 23
117 13
118 10
119 9
120 16
121 18
122 4
123 21
124 20
125 2
126 3
127 18
128 22
129 24
130 7
131 7
132 8
133 22
134 18
135 18
136 17
137 16
138 6
139 17
140 16
141 13
142 2
143 19
144 8
145 15
146 22
147 18
148 18
149 8
150 18
151 3
152 14
153 24
154 24
155 6
156 7
157 24
158 13
159 17
160 16
161 20
162 13
163 15
164 13
165 8
166 9
167 8
168 17
169 20
170 13
171 6
172 4
173 19
174 18
175 10
176 3
177 20
178 2
179 6
180 17
181 11
